(set-logic QF_UF)
(declare-fun car () Bool)
(declare-fun circuit () Bool)
(declare-fun clk () Bool)
(declare-fun prt () Bool)
(assert (= (= (not (not clk)) clk) (= clk (not (not clk)))))
(assert (= (= clk (not (not clk))) true))
(assert (not (= (= (not (not clk)) clk) true)))
(check-sat)
(exit)
